/* Objective function */
max: 4*w0 + 10*w1;

/* Variable bounds */
w0 >= 0;
w1 >= 0;

 1*c0 + 1*c1 - 1*w0 - 1*w1 >=  1.9;
 1*c0 + 2*c1 - 1*w0 - 2*w1 >=  2.9;
 1*c0 + 3*c1 - 1*w0 - 3*w1 >=  3.9;
 1*c0 + 4*c1 - 1*w0 - 4*w1 >=  4.9;

 1*c0 + 1*c1 + 1*w0 + 1*w1 <=  2.1;
 1*c0 + 2*c1 + 1*w0 + 2*w1 <=  3.1;
 1*c0 + 3*c1 + 1*w0 + 3*w1 <=  4.1;
 1*c0 + 4*c1 + 1*w0 + 4*w1 <=  5.1;

